files/upTests/_tuples_of_matrix/z/mutiMatrix/0001.eprime
language ESSENCE' 1.0

find pain_tuple1_tuple1: matrix indexed by [int(1), int(2), int(3)] of bool
find pain_tuple1_tuple2: matrix indexed by [int(1), int(2), int(3)] of bool
find pain_tuple1_tuple3: matrix indexed by [int(1), int(2), int(3)] of bool
such that
    pain_tuple1_tuple1[1, 2, 3] = true,
    pain_tuple1_tuple2[1, 2, 3] = false,
    pain_tuple1_tuple3[1, 2, 3] = true
