files/upTests/_tuples_of_matrix/z/mutiMatrix/0001.eprime.solution
language ESSENCE' 1.0
$ minion Nodes: 1
$ minion TotalTime: 0.00034
$ Savile Row TotalTime: 0.121
letting pain_tuple1_tuple3 be [[[true;int(3)];int(2)];int(1)]
letting pain_tuple1_tuple1 be [[[true;int(3)];int(2)];int(1)]
letting pain_tuple1_tuple2 be [[[false;int(3)];int(2)];int(1)]
